language ESSENCE' 1.0
$ loaded file: carseqdata/csplib-instance-47
letting numcars=200
letting numclasses=23
letting numoptions=5
letting optMax=[1, 2, 1, 2, 1]
letting windowSize=[2, 3, 3, 5, 5]
letting numberPerClass=[4, 2, 26, 9, 1, 18, 33, 5, 12, 1, 2, 5, 17, 5, 1, 2, 17, 19, 1, 2, 2, 7, 9]
letting optionsRequired=[[1, 1, 0, 1, 0], [0, 0, 0, 1, 1], [0, 0, 0, 1, 0], [1, 0, 0, 1, 0], [0, 0, 1, 0, 1], [1, 1, 0, 0, 0], [0, 1, 0, 0, 0], [0, 0, 1, 1, 0], [0, 0, 0, 0, 1], [1, 0, 1, 0, 1], [1, 1, 1, 0, 0], [1, 0, 1, 0, 0], [0, 1, 0, 1, 0], [1, 0, 0, 0, 1], [1, 0, 1, 1, 0], [0, 1, 1, 0, 1], [1, 0, 0, 0, 0], [0, 0, 1, 0, 0], [1, 1, 1, 1, 0], [1, 1, 1, 0, 1], [0, 1, 1, 1, 0], [0, 1, 1, 0, 0], [0, 1, 0, 0, 1]]
